
Gurobi 10.0.1 (win64, gurobi_cl) logging started Sun Mar 31 21:03:29 2024

Set parameter Username
Set parameter LogFile to value "gurobi.log"
Academic license - for non-commercial use only - expires 2024-05-30
Using license file C:\Users\maria\gurobi.lic

Gurobi 10.0.1 (win64, gurobi_cl) logging started Sun Mar 31 21:03:29 2024

Set parameter Username
Set parameter LogFile to value "gurobi.log"
Academic license - for non-commercial use only - expires 2024-05-30
Using license file C:\Users\maria\gurobi.lic

Gurobi 10.0.1 (win64, gurobi_cl) logging started Sun Mar 31 21:04:18 2024

Set parameter Username
Set parameter LogFile to value "gurobi.log"
Academic license - for non-commercial use only - expires 2024-05-30
Using license file C:\Users\maria\gurobi.lic

Gurobi 10.0.1 (win64, gurobi_cl) logging started Sun Mar 31 21:05:09 2024

Set parameter Username
Set parameter LogFile to value "gurobi.log"
Academic license - for non-commercial use only - expires 2024-05-30
Using license file C:\Users\maria\gurobi.lic

Gurobi 10.0.1 (win64, gurobi_cl) logging started Sun Mar 31 21:07:56 2024

Set parameter Username
Set parameter LogFile to value "gurobi.log"
Academic license - for non-commercial use only - expires 2024-05-30
Using license file C:\Users\maria\gurobi.lic

Gurobi 10.0.1 (win64, gurobi_cl) logging started Sun Mar 31 21:07:56 2024

Set parameter Username
Set parameter LogFile to value "gurobi.log"
Academic license - for non-commercial use only - expires 2024-05-30
Using license file C:\Users\maria\gurobi.lic

Gurobi 10.0.1 (win64, gurobi_cl) logging started Sun Mar 31 21:08:05 2024

Set parameter Username
Set parameter LogFile to value "gurobi.log"
Academic license - for non-commercial use only - expires 2024-05-30
Using license file C:\Users\maria\gurobi.lic

Gurobi 10.0.1 (win64, gurobi_cl) logging started Sun Mar 31 21:08:05 2024

Set parameter Username
Set parameter LogFile to value "gurobi.log"
Academic license - for non-commercial use only - expires 2024-05-30
Using license file C:\Users\maria\gurobi.lic

Gurobi 10.0.1 (win64, gurobi_cl) logging started Sun Mar 31 21:08:54 2024

Set parameter Username

Gurobi 10.0.1 (win64, gurobi_cl) logging started Sun Mar 31 21:08:54 2024

Set parameter Username

Gurobi 10.0.1 (win64, gurobi_cl) logging started Sun Mar 31 21:33:18 2024

Set parameter Username

Gurobi 10.0.1 (win64, gurobi_cl) logging started Sun Mar 31 21:33:18 2024

Set parameter Username

Gurobi 10.0.1 (win64, gurobi_cl) logging started Sun Mar 31 21:35:44 2024

Set parameter Username

Gurobi 10.0.1 (win64, gurobi_cl) logging started Sun Mar 31 21:35:44 2024

Set parameter Username

Gurobi 10.0.1 (win64, gurobi_cl) logging started Sun Mar 31 21:56:54 2024

Set parameter Username

Gurobi 10.0.1 (win64, gurobi_cl) logging started Sun Mar 31 22:02:33 2024

Set parameter Username

Gurobi 10.0.1 (win64, gurobi_cl) logging started Sun Mar 31 22:02:56 2024

Set parameter Username

Gurobi 10.0.1 (win64, gurobi_cl) logging started Sun Mar 31 22:13:41 2024

Set parameter Username

Gurobi 10.0.1 (win64, gurobi_cl) logging started Thu May 16 17:15:29 2024

Set parameter Username

Gurobi 10.0.1 (win64, gurobi_cl) logging started Mon Jun 17 14:51:02 2024

Set parameter Username

Gurobi 10.0.1 (win64, gurobi_cl) logging started Mon Jun 17 16:50:18 2024

Set parameter Username

Gurobi 10.0.1 (win64, gurobi_cl) logging started Mon Jun 17 17:02:18 2024

Set parameter WLSAccessID
Set parameter WLSSecret
Set parameter LicenseID to value 2528217

Gurobi 10.0.1 (win64, gurobi_cl) logging started Tue Jun 18 18:49:20 2024

Set parameter WLSAccessID
Set parameter WLSSecret
Set parameter LicenseID to value 2528217

Gurobi 10.0.1 (win64, gurobi_cl) logging started Tue Jun 18 20:48:34 2024

Set parameter WLSAccessID
Set parameter WLSSecret
Set parameter LicenseID to value 2528217

Gurobi 10.0.1 (win64, gurobi_cl) logging started Tue Jun 18 20:49:50 2024

Set parameter WLSAccessID
Set parameter WLSSecret
Set parameter LicenseID to value 2528217

Gurobi 10.0.1 (win64, gurobi_cl) logging started Thu Jun 20 14:22:36 2024

Set parameter WLSAccessID
Set parameter WLSSecret
Set parameter LicenseID to value 2528217

Gurobi 10.0.1 (win64, gurobi_cl) logging started Thu Jun 20 15:03:13 2024

Set parameter WLSAccessID
Set parameter WLSSecret
Set parameter LicenseID to value 2528217

Gurobi 10.0.1 (win64, gurobi_cl) logging started Thu Jun 20 15:13:36 2024

Set parameter WLSAccessID
Set parameter WLSSecret
Set parameter LicenseID to value 2528217

Gurobi 10.0.1 (win64, gurobi_cl) logging started Thu Jun 20 15:19:13 2024

Set parameter WLSAccessID
Set parameter WLSSecret
Set parameter LicenseID to value 2528217

Gurobi 10.0.1 (win64, gurobi_cl) logging started Thu Jun 20 15:47:53 2024

Set parameter Username

Gurobi 10.0.1 (win64, gurobi_cl) logging started Thu Jun 20 16:03:38 2024

Set parameter Username

Gurobi 10.0.1 (win64, gurobi_cl) logging started Thu Jun 20 16:09:59 2024

Set parameter Username

Gurobi 10.0.1 (win64, gurobi_cl) logging started Thu Jun 20 16:33:45 2024

Set parameter Username

Gurobi 10.0.1 (win64, gurobi_cl) logging started Thu Jun 20 16:50:53 2024

Set parameter Username
